# Solution for model refraction_srl_ilp
# Objective value = 5.3982292557409099e+00
Z_414_0_0 0
Z_414_0_1 1
Z_414_0_2 0
Z_414_0_3 0
Z_368_5_0 0
Z_368_5_1 0
Z_368_5_2 1
Z_368_5_3 0
Z_368_3_0 0
Z_368_3_1 0
Z_368_3_2 0
Z_368_3_3 1
Z_368_1_0 1
Z_368_1_1 0
Z_368_1_2 0
Z_368_1_3 0
Z_368_6_0 0
Z_368_6_1 1
Z_368_6_2 0
Z_368_6_3 0
Z_368_2_0 0
Z_368_2_1 0
Z_368_2_2 0
Z_368_2_3 0
Z_368_7_0 0
Z_368_7_1 0
Z_368_7_2 0
Z_368_7_3 0
Z_368_4_0 0
Z_368_4_1 0
Z_368_4_2 0
Z_368_4_3 0
Z_368_0_0 0
Z_368_0_1 0
Z_368_0_2 0
Z_368_0_3 0
Z_312_0_0 0
Z_312_0_1 1
Z_312_0_2 0
Z_312_0_3 0
Z_501_0_0 0
Z_501_0_1 1
Z_501_0_2 0
Z_501_0_3 0
Z_575_1_0 1
Z_575_1_1 0
Z_575_1_2 0
Z_575_1_3 0
Z_575_2_0 0
Z_575_2_1 0
Z_575_2_2 0
Z_575_2_3 1
Z_575_0_0 0
Z_575_0_1 1
Z_575_0_2 0
Z_575_0_3 0
Z_575_3_0 0
Z_575_3_1 0
Z_575_3_2 1
Z_575_3_3 0
Z_529_1_0 1
Z_529_1_1 0
Z_529_1_2 0
Z_529_1_3 0
Z_529_2_0 0
Z_529_2_1 0
Z_529_2_2 0
Z_529_2_3 1
Z_529_3_0 0
Z_529_3_1 1
Z_529_3_2 0
Z_529_3_3 0
Z_529_0_0 0
Z_529_0_1 0
Z_529_0_2 1
Z_529_0_3 0
Z_466_0_0 0
Z_466_0_1 0
Z_466_0_2 1
Z_466_0_3 0
